p tw 49 651
1 47
1 12
1 20
1 27
1 28
1 33
1 36
1 39
1 2
1 5
1 17
1 29
1 44
1 13
1 24
1 18
1 19
1 21
1 22
1 23
1 25
1 26
1 38
1 37
1 34
1 32
1 31
1 30
1 43
1 42
1 41
1 40
1 35
1 8
1 7
1 6
1 4
1 3
1 49
1 48
1 46
1 9
2 5
2 17
2 29
2 44
2 13
2 24
2 18
2 19
2 21
2 22
2 23
2 25
2 26
2 30
2 40
2 41
2 42
2 43
2 35
2 8
2 7
2 6
2 4
2 3
2 49
2 48
2 46
2 9
5 17
5 29
5 44
5 18
5 19
5 21
5 22
5 23
5 25
5 26
5 32
5 31
5 30
5 38
5 37
5 34
5 8
5 7
5 6
5 9
17 29
17 44
17 18
17 19
17 21
17 22
17 23
17 25
17 26
17 34
17 32
17 31
17 30
17 38
17 37
29 44
29 37
29 34
29 32
29 31
29 30
29 38
40 43
40 42
40 41
41 43
41 42
42 43
13 24
13 18
13 19
13 21
13 22
13 23
13 25
13 26
13 38
13 37
13 34
13 32
13 31
13 30
13 35
13 8
13 7
13 6
13 4
13 3
13 49
13 48
13 46
13 9
24 18
24 19
24 21
24 22
24 23
24 25
24 26
24 31
24 30
24 38
24 37
24 34
24 32
24 40
24 41
24 42
24 43
24 35
24 8
24 7
24 6
24 4
24 3
24 49
24 48
24 46
24 9
35 45
35 46
35 48
35 49
35 3
35 4
35 6
35 7
35 8
35 9
35 10
35 11
35 14
35 15
35 16
35 30
35 31
35 32
35 34
35 37
35 38
35 40
35 41
35 42
35 43
35 25
35 26
35 19
35 18
35 23
35 22
35 21
45 46
45 48
45 49
45 3
45 4
45 6
45 7
45 8
45 9
45 10
45 11
45 14
45 15
45 16
45 30
45 31
45 32
45 34
45 37
45 38
45 40
45 41
45 42
45 43
46 48
46 49
46 3
46 4
46 6
46 7
46 8
46 9
46 10
46 11
46 14
46 15
46 16
46 30
46 31
46 32
46 34
46 37
46 38
46 40
46 41
46 42
46 43
46 19
47 12
47 20
47 27
47 28
47 33
47 36
47 39
47 5
47 17
47 29
47 44
47 18
47 19
47 21
47 22
47 23
47 25
47 26
47 38
47 37
47 34
47 32
47 31
47 30
47 43
47 42
47 41
47 40
47 8
47 7
47 6
47 4
47 3
47 49
47 48
47 9
48 49
48 3
48 4
48 6
48 7
48 8
48 9
48 10
48 11
48 14
48 15
48 16
48 30
48 31
48 32
48 34
48 37
48 38
48 40
48 41
48 42
48 43
48 19
49 3
49 4
49 6
49 7
49 8
49 9
49 10
49 11
49 14
49 15
49 16
49 30
49 31
49 32
49 34
49 37
49 38
49 40
49 41
49 42
49 43
49 19
3 4
3 6
3 7
3 8
3 9
3 10
3 11
3 14
3 15
3 16
3 30
3 31
3 32
3 34
3 37
3 38
3 40
3 41
3 42
3 43
3 19
4 6
4 7
4 8
4 9
4 10
4 11
4 14
4 15
4 16
4 30
4 31
4 32
4 34
4 37
4 38
4 40
4 41
4 42
4 43
4 19
6 7
6 8
6 9
6 10
6 11
6 14
6 15
6 16
6 30
6 31
6 32
6 34
6 37
6 38
6 40
6 41
6 42
6 43
6 19
7 8
7 9
7 10
7 11
7 14
7 15
7 16
7 30
7 31
7 32
7 34
7 37
7 38
7 40
7 41
7 42
7 43
7 19
8 9
8 10
8 11
8 14
8 15
8 16
8 30
8 31
8 32
8 34
8 37
8 38
8 40
8 41
8 42
8 43
8 19
9 10
9 11
9 14
9 15
9 16
9 30
9 31
9 32
9 34
9 37
9 38
9 40
9 41
9 42
9 43
9 26
9 19
9 18
9 25
9 23
9 22
9 21
10 11
10 14
10 15
10 16
10 30
10 31
10 32
10 34
10 37
10 38
10 40
10 41
10 42
10 43
10 26
10 19
10 18
10 25
10 23
10 22
10 21
11 14
11 15
11 16
11 30
11 31
11 32
11 34
11 37
11 38
11 40
11 41
11 42
11 43
11 26
11 19
11 18
11 25
11 23
11 22
11 21
12 20
12 27
12 28
12 33
12 36
12 39
12 17
12 29
12 44
12 18
12 19
12 21
12 22
12 23
12 25
12 26
12 38
12 37
12 34
12 32
12 31
12 30
14 15
14 16
14 30
14 31
14 32
14 34
14 37
14 38
14 40
14 41
14 42
14 43
14 26
14 19
14 18
14 25
14 23
14 22
14 21
15 16
15 30
15 31
15 32
15 34
15 37
15 38
15 40
15 41
15 42
15 43
15 26
15 19
15 18
15 25
15 23
15 22
15 21
16 30
16 31
16 32
16 34
16 37
16 38
16 40
16 41
16 42
16 43
16 26
16 19
16 18
16 25
16 23
16 22
16 21
18 26
18 19
18 25
18 23
18 22
18 21
19 26
19 25
19 23
19 22
19 21
20 27
20 28
20 33
20 36
20 39
20 29
20 44
20 21
20 22
20 23
20 25
20 26
21 23
21 22
21 26
21 25
22 26
22 23
22 25
23 26
23 25
25 26
27 28
27 33
27 36
27 39
27 29
27 44
28 33
28 36
28 39
28 29
28 44
28 43
30 38
30 37
30 34
30 32
30 31
30 43
30 42
30 41
30 40
31 38
31 37
31 34
31 32
31 43
31 42
31 41
31 40
32 38
32 37
32 34
32 43
32 42
32 41
32 40
33 36
33 39
33 44
33 42
33 43
34 38
34 37
36 39
36 44
36 41
36 42
36 43
37 38
39 44
39 40
39 41
39 42
39 43
